Minimize
 + 12.000000 x6 + 12.000000 x7 + 12.000000 x8 + 12.000000 x9 + 12.000000 x10 + 12.000000 x11 + 12.000000 x12 + 12.000000 x13 + 12.000000 x14 + 12.000000 x15 + 8.000000 x16 + 8.000000 x17 + 8.000000 x18 + 8.000000 x19 + 8.000000 x20 + 8.000000 x21 + 8.000000 x22 + 8.000000 x23 + 8.000000 x24 + 8.000000 x25 + 8.000000 x26 + 8.000000 x27 + 8.000000 x28 + 8.000000 x29 + 8.000000 x30 + 8.000000 x31 + 8.000000 x32 + 8.000000 x33 + 8.000000 x34 + 8.000000 x35 + 8.000000 x36 + 8.000000 x37 + 8.000000 x38 + 8.000000 x39 + 8.000000 x40
Subject To
 + y6_6 + y6_7 + y6_14 + y6_15 + y6_16 + y6_17 + y6_18 + y6_19 + y6_20 = 1.000000
 + y7_6 + y7_7 + y7_8 + y7_16 + y7_17 + y7_18 + y7_19 + y7_20 + y7_21 = 1.000000
 + y8_7 + y8_8 + y8_9 + y8_10 + y8_20 + y8_21 + y8_22 + y8_23 + y8_24 + y8_25 = 1.000000
 + y9_8 + y9_9 + y9_10 + y9_11 + y9_21 + y9_22 + y9_23 + y9_24 + y9_25 + y9_26 + y9_27 = 1.000000
 + y10_8 + y10_9 + y10_10 + y10_11 + y10_12 + y10_13 + y10_22 + y10_23 + y10_24 + y10_25 + y10_26 + y10_27 + y10_28 + y10_29 + y10_30 = 1.000000
 + y11_9 + y11_10 + y11_11 + y11_12 + y11_13 + y11_26 + y11_27 + y11_28 + y11_29 + y11_30 = 1.000000
 + y12_10 + y12_11 + y12_12 + y12_13 + y12_14 + y12_30 + y12_31 + y12_32 = 1.000000
 + y13_10 + y13_11 + y13_12 + y13_13 + y13_14 + y13_33 + y13_34 + y13_35 + y13_36 + y13_37 + y13_38 = 1.000000
 + y14_6 + y14_12 + y14_13 + y14_14 + y14_15 + y14_33 + y14_34 + y14_35 + y14_36 + y14_37 + y14_38 = 1.000000
 + y15_6 + y15_14 + y15_15 + y15_16 + y15_39 + y15_40 = 1.000000
 + y16_6 + y16_7 + y16_15 + y16_16 + y16_17 + y16_18 + y16_19 + y16_39 + y16_40 = 1.000000
 + y17_6 + y17_7 + y17_16 + y17_17 + y17_18 + y17_19 = 1.000000
 + y18_6 + y18_7 + y18_16 + y18_17 + y18_18 + y18_19 = 1.000000
 + y19_6 + y19_7 + y19_16 + y19_17 + y19_18 + y19_19 + y19_20 = 1.000000
 + y20_6 + y20_7 + y20_8 + y20_19 + y20_20 + y20_21 = 1.000000
 + y21_7 + y21_8 + y21_9 + y21_20 + y21_21 + y21_22 = 1.000000
 + y22_8 + y22_9 + y22_10 + y22_21 + y22_22 + y22_23 + y22_24 + y22_25 = 1.000000
 + y23_8 + y23_9 + y23_10 + y23_22 + y23_23 + y23_24 + y23_25 = 1.000000
 + y24_8 + y24_9 + y24_10 + y24_22 + y24_23 + y24_24 + y24_25 = 1.000000
 + y25_8 + y25_9 + y25_10 + y25_22 + y25_23 + y25_24 + y25_25 = 1.000000
 + y26_9 + y26_10 + y26_11 + y26_26 + y26_27 = 1.000000
 + y27_9 + y27_10 + y27_11 + y27_26 + y27_27 + y27_28 + y27_29 + y27_30 = 1.000000
 + y28_10 + y28_11 + y28_27 + y28_28 + y28_29 + y28_30 = 1.000000
 + y29_10 + y29_11 + y29_27 + y29_28 + y29_29 + y29_30 = 1.000000
 + y30_10 + y30_11 + y30_12 + y30_27 + y30_28 + y30_29 + y30_30 + y30_31 + y30_32 = 1.000000
 + y31_12 + y31_30 + y31_31 + y31_32 = 1.000000
 + y32_12 + y32_30 + y32_31 + y32_32 = 1.000000
 + y33_13 + y33_14 + y33_33 + y33_34 + y33_35 = 1.000000
 + y34_13 + y34_14 + y34_33 + y34_34 + y34_35 = 1.000000
 + y35_13 + y35_14 + y35_33 + y35_34 + y35_35 = 1.000000
 + y36_13 + y36_14 + y36_36 + y36_37 + y36_38 = 1.000000
 + y37_13 + y37_14 + y37_36 + y37_37 + y37_38 = 1.000000
 + y38_13 + y38_14 + y38_36 + y38_37 + y38_38 = 1.000000
 + y39_15 + y39_16 + y39_39 + y39_40 = 1.000000
 + y40_15 + y40_16 + y40_39 + y40_40 = 1.000000
 + y6_6 + y6_7 + y6_14 + y6_15 + y6_16 + y6_17 + y6_18 + y6_19 + y6_20 = 0
 + y7_6 + y7_7 + y7_8 + y7_16 + y7_17 + y7_18 + y7_19 + y7_20 + y7_21 = 0
 + y8_7 + y8_8 + y8_9 + y8_10 + y8_20 + y8_21 + y8_22 + y8_23 + y8_24 + y8_25 = 0
 + y9_8 + y9_9 + y9_10 + y9_11 + y9_21 + y9_22 + y9_23 + y9_24 + y9_25 + y9_26 + y9_27 = 0
 + y10_8 + y10_9 + y10_10 + y10_11 + y10_12 + y10_13 + y10_22 + y10_23 + y10_24 + y10_25 + y10_26 + y10_27 + y10_28 + y10_29 + y10_30 = 0
 + y11_9 + y11_10 + y11_11 + y11_12 + y11_13 + y11_26 + y11_27 + y11_28 + y11_29 + y11_30 = 0
 + y12_10 + y12_11 + y12_12 + y12_13 + y12_14 + y12_30 + y12_31 + y12_32 = 0
 + y13_10 + y13_11 + y13_12 + y13_13 + y13_14 + y13_33 + y13_34 + y13_35 + y13_36 + y13_37 + y13_38 = 0
 + y14_6 + y14_12 + y14_13 + y14_14 + y14_15 + y14_33 + y14_34 + y14_35 + y14_36 + y14_37 + y14_38 = 0
 + y15_6 + y15_14 + y15_15 + y15_16 + y15_39 + y15_40 = 0
 + y16_6 + y16_7 + y16_15 + y16_16 + y16_17 + y16_18 + y16_19 + y16_39 + y16_40 = 0
 + y17_6 + y17_7 + y17_16 + y17_17 + y17_18 + y17_19 = 0
 + y18_6 + y18_7 + y18_16 + y18_17 + y18_18 + y18_19 = 0
 + y19_6 + y19_7 + y19_16 + y19_17 + y19_18 + y19_19 + y19_20 = 0
 + y20_6 + y20_7 + y20_8 + y20_19 + y20_20 + y20_21 = 0
 + y21_7 + y21_8 + y21_9 + y21_20 + y21_21 + y21_22 = 0
 + y22_8 + y22_9 + y22_10 + y22_21 + y22_22 + y22_23 + y22_24 + y22_25 = 0
 + y23_8 + y23_9 + y23_10 + y23_22 + y23_23 + y23_24 + y23_25 = 0
 + y24_8 + y24_9 + y24_10 + y24_22 + y24_23 + y24_24 + y24_25 = 0
 + y25_8 + y25_9 + y25_10 + y25_22 + y25_23 + y25_24 + y25_25 = 0
 + y26_9 + y26_10 + y26_11 + y26_26 + y26_27 = 0
 + y27_9 + y27_10 + y27_11 + y27_26 + y27_27 + y27_28 + y27_29 + y27_30 = 0
 + y28_10 + y28_11 + y28_27 + y28_28 + y28_29 + y28_30 = 0
 + y29_10 + y29_11 + y29_27 + y29_28 + y29_29 + y29_30 = 0
 + y30_10 + y30_11 + y30_12 + y30_27 + y30_28 + y30_29 + y30_30 + y30_31 + y30_32 = 0
 + y31_12 + y31_30 + y31_31 + y31_32 = 0
 + y32_12 + y32_30 + y32_31 + y32_32 = 0
 + y33_13 + y33_14 + y33_33 + y33_34 + y33_35 = 0
 + y34_13 + y34_14 + y34_33 + y34_34 + y34_35 = 0
 + y35_13 + y35_14 + y35_33 + y35_34 + y35_35 = 0
 + y36_13 + y36_14 + y36_36 + y36_37 + y36_38 = 0
 + y37_13 + y37_14 + y37_36 + y37_37 + y37_38 = 0
 + y38_13 + y38_14 + y38_36 + y38_37 + y38_38 = 0
 + y39_15 + y39_16 + y39_39 + y39_40 = 0
 + y40_15 + y40_16 + y40_39 + y40_40 = 0
Binary
 x6 x7 x8 x9 x10 x11 x12 x13 x14 x15 x16 x17 x18 x19 x20 x21 x22 x23 x24 x25 x26 x27 x28 x29 x30 x31 x32 x33 x34 x35 x36 x37 x38 x39 x40 y6_6 y6_7 y6_14 y6_15 y6_16 y6_17 y6_18 y6_19 y6_20
 y7_6 y7_7 y7_8 y7_16 y7_17 y7_18 y7_19 y7_20 y7_21
 y8_7 y8_8 y8_9 y8_10 y8_20 y8_21 y8_22 y8_23 y8_24 y8_25
 y9_8 y9_9 y9_10 y9_11 y9_21 y9_22 y9_23 y9_24 y9_25 y9_26 y9_27
 y10_8 y10_9 y10_10 y10_11 y10_12 y10_13 y10_22 y10_23 y10_24 y10_25 y10_26 y10_27 y10_28 y10_29 y10_30
 y11_9 y11_10 y11_11 y11_12 y11_13 y11_26 y11_27 y11_28 y11_29 y11_30
 y12_10 y12_11 y12_12 y12_13 y12_14 y12_30 y12_31 y12_32
 y13_10 y13_11 y13_12 y13_13 y13_14 y13_33 y13_34 y13_35 y13_36 y13_37 y13_38
 y14_6 y14_12 y14_13 y14_14 y14_15 y14_33 y14_34 y14_35 y14_36 y14_37 y14_38
 y15_6 y15_14 y15_15 y15_16 y15_39 y15_40
 y16_6 y16_7 y16_15 y16_16 y16_17 y16_18 y16_19 y16_39 y16_40
 y17_6 y17_7 y17_16 y17_17 y17_18 y17_19
 y18_6 y18_7 y18_16 y18_17 y18_18 y18_19
 y19_6 y19_7 y19_16 y19_17 y19_18 y19_19 y19_20
 y20_6 y20_7 y20_8 y20_19 y20_20 y20_21
 y21_7 y21_8 y21_9 y21_20 y21_21 y21_22
 y22_8 y22_9 y22_10 y22_21 y22_22 y22_23 y22_24 y22_25
 y23_8 y23_9 y23_10 y23_22 y23_23 y23_24 y23_25
 y24_8 y24_9 y24_10 y24_22 y24_23 y24_24 y24_25
 y25_8 y25_9 y25_10 y25_22 y25_23 y25_24 y25_25
 y26_9 y26_10 y26_11 y26_26 y26_27
 y27_9 y27_10 y27_11 y27_26 y27_27 y27_28 y27_29 y27_30
 y28_10 y28_11 y28_27 y28_28 y28_29 y28_30
 y29_10 y29_11 y29_27 y29_28 y29_29 y29_30
 y30_10 y30_11 y30_12 y30_27 y30_28 y30_29 y30_30 y30_31 y30_32
 y31_12 y31_30 y31_31 y31_32
 y32_12 y32_30 y32_31 y32_32
 y33_13 y33_14 y33_33 y33_34 y33_35
 y34_13 y34_14 y34_33 y34_34 y34_35
 y35_13 y35_14 y35_33 y35_34 y35_35
 y36_13 y36_14 y36_36 y36_37 y36_38
 y37_13 y37_14 y37_36 y37_37 y37_38
 y38_13 y38_14 y38_36 y38_37 y38_38
 y39_15 y39_16 y39_39 y39_40
 y40_15 y40_16 y40_39 y40_40
End
